knapPI_9_1000_1000_213
n 1000
c 366797
z 302117
time 1.2
1,977,1001,1
2,652,1000,1
3,225,1000,1
4,70,1000,1
5,484,1000,1
6,591,1000,1
7,796,1000,1
8,406,1001,1
9,72,1001,1
10,771,1001,1
11,144,1000,1
12,510,1001,1
13,507,1001,1
14,500,1000,1
15,431,1001,1
16,935,1001,1
17,177,1001,1
18,863,1001,1
19,53,1000,1
20,852,1000,1
21,51,1001,1
22,486,1000,1
23,592,1001,1
24,751,1001,1
25,169,1001,1
26,663,1001,1
27,429,1001,1
28,589,1000,1
29,76,1000,1
30,774,1001,1
31,534,1000,1
32,739,1001,1
33,750,1000,1
34,803,1000,1
35,168,1001,1
36,55,1001,1
37,952,1000,1
38,643,1001,1
39,392,1000,1
40,978,1001,1
41,776,1001,1
42,915,1000,1
43,670,1000,1
44,804,1000,1
45,505,1000,1
46,805,1000,1
47,250,1000,1
48,218,1000,1
49,767,1000,1
50,705,1001,1
51,757,1000,1
52,694,1000,1
53,287,1001,1
54,607,1001,1
55,969,1000,1
56,857,1000,1
57,254,1000,1
58,956,1000,1
59,587,1000,1
60,710,1000,1
61,252,1000,1
62,645,1001,1
63,679,1000,1
64,521,1001,1
65,51,1001,1
66,539,1001,1
67,159,1000,1
68,846,1000,1
69,515,1001,1
70,651,1000,1
71,993,1000,1
72,669,1001,1
73,862,1000,1
74,685,1000,1
75,261,1001,1
76,527,1001,1
77,901,1000,1
78,611,1001,1
79,822,1000,1
80,770,1001,1
81,216,1000,1
82,968,1001,1
83,794,1001,1
84,506,1001,1
85,558,1000,1
86,251,1001,1
87,961,1000,1
88,517,1001,1
89,856,1001,1
90,832,1000,1
91,443,1001,1
92,468,1001,1
93,779,1001,1
94,639,1000,1
95,113,1000,1
96,99,1000,1
97,137,1000,1
98,597,1001,1
99,982,1000,1
100,756,1001,1
101,527,1000,1
102,267,1000,1
103,21,1001,1
104,560,1000,1
105,327,1001,1
106,930,1000,1
107,974,1000,1
108,305,1001,1
109,68,1001,1
110,125,1000,1
111,241,1001,1
112,578,1001,1
113,264,1000,1
114,547,1000,1
115,15,1000,1
116,80,1000,1
117,166,1001,1
118,489,1001,1
119,498,1000,1
120,936,1001,1
121,40,1000,1
122,497,1001,1
123,869,1000,1
124,67,1000,1
125,795,1001,1
126,659,1000,1
127,778,1001,1
128,508,1001,1
129,112,1000,1
130,845,1001,1
131,368,1001,1
132,306,1000,1
133,595,1001,1
134,567,1001,1
135,124,1000,1
136,831,1001,1
137,409,1000,1
138,381,1001,1
139,363,1000,1
140,258,1001,1
141,310,1001,1
142,506,1001,1
143,673,1001,1
144,341,1000,1
145,504,1000,1
146,546,1001,1
147,429,1000,1
148,356,1000,1
149,12,1001,1
150,179,1000,1
151,627,1001,1
152,537,1000,1
153,521,1000,1
154,289,1000,1
155,382,1001,1
156,906,1001,1
157,59,1001,1
158,660,1000,1
159,726,1001,1
160,883,1000,1
161,925,1001,1
162,565,1001,1
163,470,1001,1
164,872,1000,1
165,671,1001,1
166,489,1000,1
167,113,1001,1
168,625,1000,1
169,529,1000,1
170,657,1000,1
171,599,1000,1
172,297,1000,1
173,250,1000,1
174,820,1001,1
175,123,1000,1
176,962,1000,1
177,552,1000,1
178,809,1001,1
179,909,1001,1
180,866,1001,1
181,443,1001,1
182,75,1000,1
183,81,1001,1
184,882,1000,1
185,997,1000,1
186,853,1000,1
187,385,1001,1
188,258,1000,1
189,876,1000,1
190,623,1001,1
191,423,1001,1
192,429,1001,1
193,963,1000,1
194,641,1000,1
195,717,1000,1
196,971,1001,1
197,531,1001,1
198,936,1001,1
199,547,1001,1
200,267,1000,1
201,77,1001,1
202,229,1001,1
203,737,1001,1
204,234,1001,1
205,559,1000,1
206,470,1001,1
207,968,1001,1
208,490,1000,1
209,156,1001,1
210,843,1000,1
211,380,1001,1
212,691,1001,1
213,824,1000,1
214,313,1000,1
215,470,1001,1
216,970,1000,1
217,31,1001,1
218,500,1001,1
219,399,1000,1
220,989,1000,1
221,384,1000,1
222,498,1001,1
223,417,1000,1
224,963,1001,1
225,653,1000,1
226,205,1000,1
227,915,1001,1
228,877,1001,1
229,38,1000,1
230,264,1000,1
231,701,1001,1
232,687,1000,1
233,121,1001,1
234,835,1001,1
235,573,1001,1
236,601,1000,1
237,564,1000,1
238,250,1001,1
239,709,1000,1
240,566,1001,1
241,277,1000,1
242,271,1001,1
243,764,1001,1
244,960,1001,1
245,678,1001,1
246,336,1001,1
247,895,1001,1
248,211,1000,1
249,589,1000,1
250,120,1001,1
251,66,1001,1
252,742,1000,1
253,781,1000,1
254,580,1001,1
255,916,1001,1
256,703,1000,1
257,535,1000,1
258,738,1000,1
259,460,1001,1
260,17,1000,1
261,594,1001,1
262,706,1001,1
263,857,1000,1
264,676,1001,1
265,544,1001,1
266,807,1001,1
267,412,1001,1
268,244,1000,1
269,97,1001,1
270,522,1000,1
271,45,1000,1
272,453,1000,1
273,420,1001,1
274,197,1001,1
275,810,1000,1
276,501,1000,1
277,382,1001,1
278,5,1000,1
279,987,1000,1
280,984,1001,1
281,650,1000,1
282,158,1000,1
283,724,1000,1
284,216,1000,1
285,729,1001,1
286,517,1001,1
287,866,1001,1
288,583,1000,1
289,129,1001,1
290,829,1000,1
291,82,1001,1
292,869,1000,1
293,557,1001,1
294,997,1000,1
295,540,1001,1
296,649,1001,1
297,341,1001,1
298,364,1001,1
299,711,1001,1
300,801,1001,1
301,716,1001,1
302,682,1001,1
303,181,1001,1
304,259,1000,1
305,352,1001,1
306,50,1001,1
307,359,1001,1
308,544,1001,1
309,422,1000,1
310,897,1001,1
311,937,1001,1
312,829,1000,1
313,450,1000,1
314,754,1001,1
315,635,1000,1
316,328,1000,1
317,97,1000,1
318,601,1000,1
319,450,1001,1
320,7,1000,1
321,874,1001,1
322,741,1000,1
323,978,1001,1
324,997,1001,1
325,91,1001,1
326,227,1001,1
327,668,1000,1
328,296,1000,1
329,183,1001,1
330,246,1001,1
331,985,1001,1
332,738,1000,1
333,90,1000,1
334,648,1001,1
335,722,1001,1
336,51,1000,1
337,966,1001,1
338,46,1001,1
339,156,1000,1
340,671,1001,1
341,544,1001,1
342,557,1001,1
343,663,1001,1
344,28,1001,1
345,711,1001,1
346,568,1001,1
347,683,1000,1
348,324,1001,1
349,426,1001,1
350,195,1000,1
351,624,1001,1
352,45,1000,1
353,924,1000,1
354,901,1000,1
355,188,1000,1
356,348,1000,1
357,775,1000,1
358,946,1000,1
359,908,1001,1
360,363,1001,1
361,880,1000,1
362,62,1001,1
363,283,1001,1
364,357,1000,1
365,839,1000,1
366,255,1000,1
367,242,1000,1
368,886,1001,1
369,217,1001,1
370,341,1000,1
371,70,1001,1
372,592,1001,1
373,568,1000,1
374,205,1000,1
375,819,1000,1
376,253,1001,1
377,609,1000,1
378,281,1001,1
379,496,1001,1
380,849,1001,1
381,375,1001,1
382,412,1000,1
383,605,1000,1
384,199,1000,1
385,962,1001,1
386,891,1001,1
387,667,1001,1
388,165,1001,1
389,317,1001,1
390,191,1001,1
391,500,1001,1
392,316,1001,1
393,399,1000,1
394,80,1001,1
395,788,1000,1
396,504,1001,1
397,286,1001,1
398,500,1000,1
399,355,1000,1
400,74,1000,1
401,896,1001,1
402,11,1001,1
403,766,1000,1
404,481,1000,1
405,507,1000,1
406,297,1001,1
407,336,1001,1
408,541,1001,1
409,271,1000,1
410,345,1000,1
411,459,1000,1
412,356,1000,1
413,335,1000,1
414,954,1000,1
415,99,1001,1
416,68,1000,1
417,978,1000,1
418,740,1000,1
419,711,1000,1
420,772,1000,1
421,306,1000,1
422,895,1001,1
423,654,1000,1
424,360,1000,1
425,964,1001,1
426,369,1001,1
427,489,1001,1
428,349,1001,1
429,193,1000,1
430,46,1001,1
431,165,1000,1
432,899,1001,1
433,785,1001,1
434,355,1000,1
435,511,1001,1
436,822,1000,1
437,306,1001,1
438,776,1000,1
439,298,1001,1
440,864,1000,1
441,618,1001,1
442,349,1001,1
443,855,1000,1
444,212,1000,1
445,81,1000,1
446,861,1000,1
447,834,1000,1
448,125,1001,1
449,412,1000,1
450,829,1001,1
451,884,1000,1
452,796,1000,1
453,528,1000,1
454,828,1001,1
455,109,1001,1
456,701,1001,1
457,568,1000,1
458,247,1001,1
459,638,1001,1
460,655,1000,1
461,441,1001,1
462,437,1000,1
463,634,1001,1
464,434,1000,1
465,39,1000,1
466,967,1000,1
467,539,1000,1
468,6,1001,1
469,770,1001,1
470,894,1000,1
471,972,1001,1
472,385,1000,1
473,752,1000,1
474,485,1001,1
475,433,1000,1
476,475,1001,1
477,121,1000,1
478,378,1000,1
479,54,1000,1
480,480,1000,1
481,201,1001,1
482,165,1000,1
483,712,1001,1
484,517,1001,1
485,322,1001,1
486,717,1000,1
487,951,1001,1
488,775,1000,1
489,510,1000,1
490,565,1001,1
491,959,1001,1
492,605,1001,1
493,537,1001,1
494,286,1001,1
495,209,1001,1
496,903,1001,1
497,52,1001,1
498,87,1000,1
499,210,1001,1
500,639,1000,1
501,608,1000,1
502,293,1001,1
503,80,1000,1
504,454,1000,1
505,876,1001,1
506,211,1001,1
507,638,1001,1
508,624,1000,1
509,574,1001,1
510,356,1001,1
511,645,1001,1
512,674,1001,1
513,453,1000,1
514,514,1000,1
515,772,1001,1
516,903,1001,1
517,867,1001,1
518,523,1000,1
519,202,1001,1
520,14,1001,1
521,557,1000,1
522,521,1000,1
523,909,1000,1
524,355,1001,1
525,72,1001,1
526,380,1000,1
527,529,1001,1
528,936,1000,1
529,796,1001,1
530,388,1001,1
531,815,1001,1
532,634,1001,1
533,430,1000,1
534,363,1000,1
535,206,1001,1
536,250,1001,1
537,617,1001,1
538,633,1000,1
539,166,1000,1
540,807,1001,1
541,806,1001,1
542,971,1001,1
543,63,1001,1
544,394,1000,1
545,809,1001,1
546,432,1001,1
547,274,1000,1
548,567,1001,1
549,577,1000,1
550,188,1000,1
551,345,1001,1
552,382,1001,1
553,975,1000,1
554,661,1001,1
555,432,1000,1
556,380,1001,1
557,867,1001,1
558,700,1000,1
559,252,1001,1
560,83,1001,1
561,224,1001,1
562,616,1001,1
563,346,1000,1
564,902,1001,1
565,224,1000,1
566,963,1001,1
567,411,1000,1
568,40,1000,1
569,240,1000,1
570,542,1001,1
571,626,1000,1
572,333,1000,1
573,729,1000,1
574,747,1001,1
575,545,1001,1
576,168,1001,1
577,538,1001,1
578,666,1001,1
579,745,1000,1
580,351,1000,1
581,87,1000,1
582,781,1000,1
583,267,1000,1
584,559,1000,1
585,842,1001,1
586,145,1001,1
587,69,1000,1
588,430,1001,1
589,817,1001,1
590,974,1000,1
591,550,1001,1
592,714,1000,1
593,155,1001,1
594,478,1001,1
595,57,1000,1
596,999,1000,1
597,731,1000,1
598,436,1000,1
599,201,1001,1
600,985,1001,1
601,438,1001,1
602,912,1001,1
603,767,1001,1
604,34,1000,1
605,900,1001,1
606,38,1000,1
607,615,1000,1
608,605,1001,1
609,570,1000,1
610,22,1000,1
611,625,1001,1
612,759,1000,1
613,358,1000,1
614,755,1000,1
615,47,1001,1
616,638,1001,1
617,513,1000,1
618,391,1001,1
619,863,1000,1
620,775,1000,1
621,486,1001,1
622,216,1001,1
623,821,1000,1
624,970,1000,1
625,517,1000,1
626,655,1000,1
627,821,1000,1
628,698,1000,1
629,734,1001,1
630,584,1001,1
631,734,1000,1
632,259,1001,1
633,861,1000,1
634,460,1001,1
635,700,1001,1
636,114,1001,1
637,457,1000,1
638,981,1001,1
639,64,1001,1
640,879,1001,1
641,840,1000,1
642,896,1001,1
643,69,1001,1
644,246,1000,1
645,226,1001,1
646,331,1001,1
647,736,1001,1
648,791,1001,1
649,119,1001,1
650,681,1001,1
651,537,1001,1
652,901,1001,1
653,564,1000,1
654,782,1001,1
655,331,1000,1
656,441,1000,1
657,923,1001,1
658,782,1000,1
659,647,1000,1
660,563,1001,1
661,324,1000,1
662,764,1001,1
663,805,1000,1
664,788,1001,1
665,714,1000,1
666,967,1001,1
667,345,1000,1
668,24,1001,1
669,721,1000,1
670,721,1000,1
671,789,1001,1
672,747,1001,1
673,766,1001,1
674,816,1000,1
675,872,1001,1
676,293,1001,1
677,907,1000,1
678,781,1000,1
679,986,1000,1
680,309,1000,1
681,695,1001,1
682,446,1001,1
683,190,1001,1
684,106,1001,1
685,868,1001,1
686,916,1001,1
687,426,1001,1
688,542,1001,1
689,945,1000,1
690,365,1000,1
691,900,1000,1
692,209,1000,1
693,904,1001,1
694,515,1000,1
695,865,1001,1
696,663,1000,1
697,384,1000,1
698,154,1001,1
699,439,1000,1
700,64,1001,1
701,264,1000,1
702,327,1001,1
703,800,1001,1
704,733,1001,1
705,376,1001,1
706,693,1000,1
707,155,1000,1
708,47,1001,1
709,567,1000,1
710,410,1000,1
711,675,1001,1
712,169,1000,1
713,749,1000,1
714,23,1001,1
715,723,1000,1
716,858,1000,1
717,143,1000,1
718,551,1001,1
719,156,1001,1
720,797,1001,1
721,726,1001,1
722,799,1001,1
723,252,1001,1
724,188,1001,1
725,320,1000,1
726,710,1001,1
727,889,1000,1
728,222,1000,1
729,969,1001,1
730,858,1001,1
731,467,1001,1
732,871,1000,1
733,191,1000,1
734,91,1001,1
735,815,1000,1
736,994,1001,1
737,124,1000,1
738,134,1001,1
739,801,1000,1
740,387,1000,1
741,312,1001,1
742,298,1000,1
743,537,1001,1
744,272,1000,1
745,814,1000,1
746,976,1001,1
747,600,1000,1
748,630,1000,1
749,225,1000,1
750,34,1001,1
751,773,1001,1
752,966,1000,1
753,632,1001,1
754,569,1000,1
755,684,1001,1
756,895,1001,1
757,228,1001,1
758,821,1000,1
759,351,1001,1
760,635,1000,1
761,329,1000,1
762,296,1000,1
763,483,1000,1
764,234,1001,1
765,507,1000,1
766,182,1001,1
767,65,1000,1
768,359,1000,1
769,740,1000,1
770,545,1001,1
771,688,1000,1
772,168,1001,1
773,965,1001,1
774,907,1000,1
775,335,1000,1
776,233,1000,1
777,858,1001,1
778,932,1000,1
779,765,1001,1
780,197,1000,1
781,526,1001,1
782,693,1000,1
783,697,1001,1
784,233,1000,1
785,995,1001,1
786,390,1001,1
787,159,1001,1
788,151,1000,1
789,233,1001,1
790,528,1001,1
791,814,1001,1
792,956,1001,1
793,648,1000,1
794,278,1001,1
795,512,1000,1
796,953,1001,1
797,791,1001,1
798,780,1000,1
799,405,1000,1
800,211,1001,1
801,97,1000,1
802,208,1001,1
803,460,1000,1
804,729,1000,1
805,38,1001,1
806,523,1001,1
807,135,1001,1
808,689,1000,1
809,12,1000,1
810,758,1000,1
811,182,1001,1
812,358,1000,1
813,405,1001,1
814,791,1000,1
815,752,1000,1
816,554,1000,1
817,983,1000,1
818,41,1000,1
819,31,1000,1
820,225,1000,1
821,529,1001,1
822,404,1000,1
823,489,1000,1
824,972,1001,1
825,910,1000,1
826,934,1001,1
827,490,1001,1
828,778,1000,1
829,624,1000,1
830,920,1001,1
831,3,1001,1
832,154,1001,1
833,388,1000,1
834,611,1001,1
835,114,1000,1
836,362,1000,1
837,446,1001,1
838,333,1001,1
839,360,1001,1
840,73,1000,1
841,448,1001,1
842,602,1000,1
843,422,1001,1
844,871,1001,1
845,648,1001,1
846,262,1001,1
847,633,1001,1
848,31,1000,1
849,189,1000,1
850,470,1000,1
851,71,1000,1
852,554,1000,1
853,483,1001,1
854,801,1000,1
855,987,1001,1
856,923,1000,1
857,420,1000,1
858,246,1000,1
859,102,1000,1
860,492,1000,1
861,153,1000,1
862,321,1001,1
863,760,1001,1
864,778,1000,1
865,242,1000,1
866,803,1000,1
867,500,1001,1
868,334,1000,1
869,78,1000,1
870,940,1001,1
871,746,1000,1
872,894,1000,1
873,916,1001,1
874,898,1000,1
875,701,1000,1
876,851,1000,1
877,597,1000,1
878,173,1000,1
879,258,1001,1
880,772,1001,1
881,99,1000,1
882,870,1001,1
883,357,1001,1
884,369,1000,1
885,462,1000,1
886,111,1001,1
887,381,1000,1
888,986,1000,1
889,233,1000,1
890,854,1001,1
891,333,1000,1
892,559,1001,1
893,194,1001,1
894,79,1000,1
895,558,1001,1
896,986,1001,1
897,366,1000,1
898,227,1000,1
899,300,1001,1
900,419,1001,1
901,404,1000,1
902,578,1000,1
903,255,1001,1
904,560,1000,1
905,201,1001,1
906,787,1000,1
907,384,1000,1
908,388,1000,1
909,334,1001,1
910,610,1001,1
911,533,1000,1
912,799,1000,1
913,478,1000,1
914,368,1001,1
915,177,1000,1
916,715,1001,1
917,867,1001,1
918,449,1001,1
919,149,1001,1
920,495,1001,1
921,30,1001,1
922,266,1001,1
923,456,1000,1
924,570,1001,1
925,375,1001,1
926,82,1000,1
927,356,1000,1
928,166,1001,1
929,646,1000,1
930,183,1000,1
931,954,1001,1
932,637,1001,1
933,845,1001,1
934,87,1000,1
935,83,1000,1
936,156,1000,1
937,728,1001,1
938,765,1000,1
939,575,1000,1
940,368,1001,1
941,198,1000,1
942,286,1000,1
943,42,1001,1
944,186,1001,1
945,297,1001,1
946,248,1000,1
947,826,1001,1
948,126,1001,1
949,438,1001,1
950,29,1000,1
951,36,1001,1
952,793,1000,1
953,520,1001,1
954,106,1001,1
955,294,1001,1
956,25,1001,1
957,542,1000,1
958,216,1001,1
959,652,1001,1
960,13,1001,1
961,788,1000,1
962,302,1001,1
963,782,1001,1
964,488,1000,1
965,17,1000,1
966,589,1001,1
967,950,1001,1
968,896,1000,1
969,803,1000,1
970,87,1000,1
971,743,1001,1
972,704,1001,1
973,280,1000,1
974,354,1000,1
975,113,1000,1
976,163,1001,1
977,827,1000,1
978,379,1000,1
979,600,1000,1
980,159,1000,1
981,686,1001,1
982,676,1001,1
983,898,1001,1
984,754,1001,1
985,890,1001,1
986,640,1001,1
987,560,1001,1
988,966,1001,1
989,630,1000,1
990,870,1001,1
991,934,1000,1
992,232,1001,1
993,96,1000,1
994,621,1001,1
995,449,1000,1
996,948,1000,1
997,786,1001,1
998,461,1000,1
999,533,1000,1
1000,975,1000,1
